p cnf 13 20
13 -11 -3 0
-13 -9 -7 0
-13 -6 5 0
-12 -10 7 0
-12 10 1 0
-12 9 7 0
-12 9 -6 0
12 3 -2 0
-11 -10 -8 0
-11 10 -7 0
-11 -10 2 0
11 8 3 0
11 -4 3 0
11 3 1 0
10 7 -5 0
-10 7 3 0
10 6 -4 0
9 -8 -1 0
-7 4 -1 0
6 5 4 0
